#external='bash gausch.sh' opt=nomicro nosymm

SchNet-G16

0 1
O    0.308905    1.371049   -0.011423
C    1.294781    0.446750    0.464853
H    1.876033    0.992544    1.245803
O    2.161514    0.079724   -0.608163
H    2.457863    0.879778   -1.068024
C    0.664023   -0.847281    1.022778
H    0.143597   -0.643221    1.975256
O    1.706905   -1.790216    1.298243
H    2.366398   -1.714918    0.588465
C   -0.331042   -1.444099   -0.001656
H    0.237014   -1.804266   -0.887972
O   -1.042766   -2.543661    0.574117
H   -0.405203   -3.087947    1.062707
C   -1.340133   -0.372032   -0.443351
H   -1.943775   -0.049890    0.435380
O   -2.220241   -0.926992   -1.428904
H   -2.462949   -1.817161   -1.123842
C   -0.596533    0.845610   -1.031199
H    0.010316    0.520442   -1.901455
C   -1.533738    1.990926   -1.446562
H   -2.188012    2.271087   -0.592440
H   -0.947653    2.883653   -1.713938
O   -2.307055    1.615041   -2.567144
H   -2.619394    0.701626   -2.443829

